************************************************************************
file with basedata            : n/a
initial value random generator: n/a
************************************************************************
projects                      :  1
jobs (incl. supersource/sink ):  122
horizon                       :  652
RESOURCES
  - renewable                 :  4   R
  - nonrenewable              :  0   N
  - doubly constrained        :  0   D
************************************************************************
PROJECT INFORMATION:
pronr.  #jobs rel.date duedate tardcost  MPM-Time
    1    120      0       84       39       84
************************************************************************
PRECEDENCE RELATIONS:
jobnr.    #modes  #successors   successors
   1        1          3           2   3   4
   2        1          3           5   6   7
   3        1          3           8  38  47
   4        1          3          11  16  41
   5        1          3           9  12  20
   6        1          2          10  13
   7        1          3          25  51  54
   8        1          2          36  63
   9        1          3          14  21  27
  10        1          1          37
  11        1          3          15  33  42
  12        1          2          46  52
  13        1          2          18  91
  14        1          3          17  81  84
  15        1          3          19  50  58
  16        1          1          28
  17        1          3          22  23  30
  18        1          2          65  92
  19        1          3          24  68 102
  20        1          1          86
  21        1          3          26  35  78
  22        1          1          67
  23        1          1          70
  24        1          2          27  55
  25        1          1          52
  26        1          3          32  94  98
  27        1          3          29  32  79
  28        1          1          44
  29        1          3          31  34  45
  30        1          2          43  96
  31        1          3          49  65  83
  32        1          1          60
  33        1          1          97
  34        1          2          40 112
  35        1          1         102
  36        1          2          57  71
  37        1          1          39
  38        1          2          59  68
  39        1          1         104
  40        1          3          48 104 105
  41        1          1          56
  42        1          1         107
  43        1          1          87
  44        1          1          69
  45        1          2          61  75
  46        1          1          87
  47        1          1          66
  48        1          2          80  85
  49        1          2          53  76
  50        1          1          61
  51        1          1          85
  52        1          1          58
  53        1          1          95
  54        1          1          72
  55        1          3          73  74  93
  56        1          1         108
  57        1          1          64
  58        1          1         110
  59        1          1          62
  60        1          2         100 114
  61        1          1          90
  62        1          2          66  82
  63        1          1         104
  64        1          1          76
  65        1          1         101
  66        1          1          78
  67        1          1         109
  68        1          1          86
  69        1          1         114
  70        1          1         103
  71        1          2         117 118
  72        1          1          87
  73        1          2          77  99
  74        1          1          85
  75        1          1         109
  76        1          1          98
  77        1          1          88
  78        1          1         119
  79        1          1         101
  80        1          1          97
  81        1          1         115
  82        1          1          83
  83        1          1          89
  84        1          2          94 111
  85        1          1          88
  86        1          1         106
  87        1          2         109 112
  88        1          2          96 118
  89        1          1         116
  90        1          1         121
  91        1          1          92
  92        1          1          95
  93        1          2          99 100
  94        1          1          95
  95        1          1          99
  96        1          1         111
  97        1          1         121
  98        1          2         100 113
  99        1          1         112
 100        1          1         106
 101        1          2         113 118
 102        1          1         115
 103        1          1         117
 104        1          1         106
 105        1          2         111 114
 106        1          1         116
 107        1          1         113
 108        1          1         110
 109        1          1         110
 110        1          1         117
 111        1          1         120
 112        1          1         116
 113        1          1         115
 114        1          1         121
 115        1          1         119
 116        1          1         120
 117        1          1         119
 118        1          1         120
 119        1          1         122
 120        1          1         122
 121        1          1         122
 122        1          0        
************************************************************************
REQUESTS/DURATIONS:
jobnr. mode duration  R 1  R 2  R 3  R 4
------------------------------------------------------------------------
  1      1     0    
  2      1     4       0   0   0   0
                       2   3   3   3
                       4   8   8   8
                       0   0   0   0
  3      1    10       0   0   0   0   0   0   0   0   0   0
                       0   0   0   0   0   0   0   0   0   0
                      10  10  10   5  10  10   5   5  10   5
                       0   0   0   0   0   0   0   0   0   0
  4      1     3       0   0   0
                       0   0   0
                       0   0   0
                       1   1   1
  5      1     6      10  10   5  10  10  10
                       4   4   2   4   4   4
                      10  10   5  10  10  10
                       0   0   0   0   0   0
  6      1     8      10   5  10   5  10   5  10   5
                       5   3   5   3   5   3   5   3
                       0   0   0   0   0   0   0   0
                       8   4   8   4   8   4   8   4
  7      1     4       0   0   0   0
                       2   3   2   2
                       0   0   0   0
                       0   0   0   0
  8      1     4       0   0   0   0
                       6   6   6   6
                       7   7   7   7
                       0   0   0   0
  9      1     8       2   2   2   2   1   2   2   2
                       0   0   0   0   0   0   0   0
                       0   0   0   0   0   0   0   0
                       0   0   0   0   0   0   0   0
 10      1     3       0   0   0
                       6   6   3
                       0   0   0
                       3   3   2
 11      1     2       0   0
                       4   7
                       0   0
                       4   7
 12      1     2       5   9
                       2   4
                       5  10
                       4   7
 13      1     1       1
                       0
                       3
                       0
 14      1     4       0   0   0   0
                       4   4   4   2
                       0   0   0   0
                       1   1   1   1
 15      1    10       5  10  10  10  10  10  10  10  10   5
                       2   3   3   3   3   3   3   3   3   2
                       3   5   5   5   5   5   5   5   5   3
                       3   6   6   6   6   6   6   6   6   3
 16      1     8       0   0   0   0   0   0   0   0
                       0   0   0   0   0   0   0   0
                       1   1   1   1   1   1   1   1
                       9   9   9   9   9   5   9   9
 17      1     1       0
                       0
                       0
                       1
 18      1     6       5   5   5   5   5   3
                       0   0   0   0   0   0
                       0   0   0   0   0   0
                       2   2   2   2   2   1
 19      1     9       0   0   0   0   0   0   0   0   0
                       9   9   9   9   9   9   9   9   9
                       9   9   9   9   9   9   9   9   9
                       0   0   0   0   0   0   0   0   0
 20      1     2       0   0
                       0   0
                       7   4
                       0   0
 21      1     4       0   0   0   0
                       3   3   3   3
                       9   9   9   9
                       0   0   0   0
 22      1     3       6   6   6
                       1   1   1
                       0   0   0
                       9   9   9
 23      1    10       2   2   2   2   2   2   2   1   1   2
                       0   0   0   0   0   0   0   0   0   0
                       0   0   0   0   0   0   0   0   0   0
                       0   0   0   0   0   0   0   0   0   0
 24      1     1       0
                      10
                       0
                       3
 25      1    10       3   3   3   3   3   3   3   3   3   3
                       0   0   0   0   0   0   0   0   0   0
                       9   9   9   9   9   9   9   9   9   9
                       0   0   0   0   0   0   0   0   0   0
 26      1     4       0   0   0   0
                       0   0   0   0
                       5   5   5   5
                       0   0   0   0
 27      1     9       1   1   1   1   1   1   1   1   1
                       0   0   0   0   0   0   0   0   0
                       0   0   0   0   0   0   0   0   0
                       0   0   0   0   0   0   0   0   0
 28      1     5       0   0   0   0   0
                       4   4   8   8   8
                       5   5  10  10  10
                       0   0   0   0   0
 29      1     3       3   3   3
                       4   4   4
                       7   7   7
                       0   0   0
 30      1     5       0   0   0   0   0
                       0   0   0   0   0
                       2   2   2   1   2
                       0   0   0   0   0
 31      1     2      10  10
                       1   1
                       0   0
                       0   0
 32      1     6       7   7   4   7   7   7
                       2   2   1   2   2   2
                       0   0   0   0   0   0
                       0   0   0   0   0   0
 33      1    10       0   0   0   0   0   0   0   0   0   0
                       0   0   0   0   0   0   0   0   0   0
                       0   0   0   0   0   0   0   0   0   0
                       6   6   6   6   3   6   6   6   6   3
 34      1     1       4
                       2
                       0
                       0
 35      1    10       4   4   7   7   7   7   4   4   7   7
                       0   0   0   0   0   0   0   0   0   0
                       0   0   0   0   0   0   0   0   0   0
                       1   1   2   2   2   2   1   1   2   2
 36      1     1       0
                       8
                       5
                       0
 37      1     6       0   0   0   0   0   0
                       5   5   5   3   5   5
                       0   0   0   0   0   0
                       6   6   6   3   6   6
 38      1     4       0   0   0   0
                       8   8   8   8
                       0   0   0   0
                       5   5   5   5
 39      1     8       0   0   0   0   0   0   0   0
                       0   0   0   0   0   0   0   0
                       3   3   3   3   3   3   3   3
                      10  10  10  10  10  10  10  10
 40      1     6       6   3   6   6   6   6
                       0   0   0   0   0   0
                       3   2   3   3   3   3
                       0   0   0   0   0   0
 41      1     5       0   0   0   0   0
                       7   7   4   7   7
                       5   5   3   5   5
                       0   0   0   0   0
 42      1     2       3   3
                       0   0
                       4   4
                       0   0
 43      1     3       9   9   9
                       0   0   0
                       0   0   0
                       3   3   3
 44      1     2       0   0
                       9   5
                       0   0
                       8   4
 45      1     5       9   9   9   9   9
                       3   3   3   3   3
                       0   0   0   0   0
                       8   8   8   8   8
 46      1    10       0   0   0   0   0   0   0   0   0   0
                       1   2   2   2   2   1   1   2   2   2
                       0   0   0   0   0   0   0   0   0   0
                       0   0   0   0   0   0   0   0   0   0
 47      1     3       0   0   0
                       3   3   2
                       0   0   0
                       1   1   1
 48      1     4       0   0   0   0
                       0   0   0   0
                       0   0   0   0
                       8   8   8   4
 49      1     3       6   6   6
                      10  10  10
                       2   2   2
                       9   9   9
 50      1     7       0   0   0   0   0   0   0
                       0   0   0   0   0   0   0
                       0   0   0   0   0   0   0
                       5   5   5   5   5   3   3
 51      1     8       0   0   0   0   0   0   0   0
                       1   1   1   1   1   1   1   1
                       3   2   2   3   3   3   3   3
                       8   4   4   8   8   8   8   8
 52      1     7       4   4   4   2   4   4   4
                       0   0   0   0   0   0   0
                       0   0   0   0   0   0   0
                      10  10  10   5  10  10  10
 53      1     5       8   8   8   8   8
                       6   6   6   6   6
                       0   0   0   0   0
                       9   9   9   9   9
 54      1     6       0   0   0   0   0   0
                       2   2   2   1   2   2
                       0   0   0   0   0   0
                       4   4   4   2   4   4
 55      1    10       0   0   0   0   0   0   0   0   0   0
                       0   0   0   0   0   0   0   0   0   0
                       4   4   4   4   4   4   4   4   4   2
                       2   2   2   2   2   2   2   2   2   1
 56      1     9       0   0   0   0   0   0   0   0   0
                       3   5   5   5   3   5   5   5   5
                       0   0   0   0   0   0   0   0   0
                       0   0   0   0   0   0   0   0   0
 57      1     2       0   0
                       0   0
                       3   6
                       3   6
 58      1     2       0   0
                       0   0
                       2   3
                       4   7
 59      1     8       8   8   8   8   8   8   8   8
                       0   0   0   0   0   0   0   0
                       4   4   4   4   4   4   4   4
                       7   7   7   7   7   7   7   7
 60      1     6       8   8   8   8   8   8
                       0   0   0   0   0   0
                       1   1   1   1   1   1
                       2   2   2   2   2   2
 61      1     6       1   1   1   1   1   1
                       7   7   4   4   7   7
                       0   0   0   0   0   0
                       0   0   0   0   0   0
 62      1     9       0   0   0   0   0   0   0   0   0
                       0   0   0   0   0   0   0   0   0
                       4   4   4   4   2   2   4   2   4
                       9   9   9   9   5   5   9   5   9
 63      1     1       3
                       6
                       0
                       8
 64      1     3       0   0   0
                       0   0   0
                       7   7   7
                       9   9   9
 65      1     5       0   0   0   0   0
                       3   2   3   3   3
                       0   0   0   0   0
                       0   0   0   0   0
 66      1     4       0   0   0   0
                       0   0   0   0
                       5   5   5   5
                       0   0   0   0
 67      1     1       0
                      10
                       0
                       0
 68      1     4       0   0   0   0
                       9   9   9   9
                       8   8   8   8
                       5   5   5   5
 69      1     4       0   0   0   0
                       0   0   0   0
                      10  10  10  10
                       0   0   0   0
 70      1     1       5
                       0
                       9
                       1
 71      1     1       0
                       0
                       0
                       9
 72      1     4       1   1   1   1
                      10  10  10  10
                       0   0   0   0
                       1   1   1   1
 73      1     9       0   0   0   0   0   0   0   0   0
                       0   0   0   0   0   0   0   0   0
                       6   6   6   6   6   6   6   6   6
                       3   3   3   3   3   3   3   3   3
 74      1    10       0   0   0   0   0   0   0   0   0   0
                      10   5  10   5   5  10  10  10  10  10
                       2   1   2   1   1   2   2   2   2   2
                       6   3   6   3   3   6   6   6   6   6
 75      1     2       0   0
                       9   5
                       0   0
                       9   5
 76      1     2       6   6
                       0   0
                       0   0
                       6   6
 77      1     9       0   0   0   0   0   0   0   0   0
                       0   0   0   0   0   0   0   0   0
                       0   0   0   0   0   0   0   0   0
                       1   2   1   1   2   2   2   2   1
 78      1     8       2   1   1   1   2   2   2   2
                       0   0   0   0   0   0   0   0
                       0   0   0   0   0   0   0   0
                       0   0   0   0   0   0   0   0
 79      1     5       0   0   0   0   0
                      10  10  10  10  10
                       0   0   0   0   0
                       0   0   0   0   0
 80      1     9       0   0   0   0   0   0   0   0   0
                       5   5   5   5   5   5   5   5   3
                       0   0   0   0   0   0   0   0   0
                       0   0   0   0   0   0   0   0   0
 81      1     1       0
                       1
                       2
                       1
 82      1     8       1   1   1   1   1   1   1   1
                       0   0   0   0   0   0   0   0
                       0   0   0   0   0   0   0   0
                       7   7   7   7   7   7   7   7
 83      1     6       5   5   5   5   5   5
                       7   7   7   7   7   7
                       0   0   0   0   0   0
                       6   6   6   6   6   6
 84      1    10       6   3   3   3   6   6   3   6   6   6
                       5   3   3   3   5   5   3   5   5   5
                       0   0   0   0   0   0   0   0   0   0
                       7   4   4   4   7   7   4   7   7   7
 85      1     2      10  10
                       6   6
                       2   2
                       0   0
 86      1     9       6   6   6   6   6   6   6   6   6
                       0   0   0   0   0   0   0   0   0
                       4   4   4   4   4   4   4   4   4
                       0   0   0   0   0   0   0   0   0
 87      1     4       0   0   0   0
                       0   0   0   0
                       3   2   3   2
                       0   0   0   0
 88      1    10       7   7   7   7   7   4   7   7   4   7
                       0   0   0   0   0   0   0   0   0   0
                       0   0   0   0   0   0   0   0   0   0
                       8   8   8   8   8   4   8   8   4   8
 89      1    10       6   6   6   3   6   6   6   6   6   6
                      10  10  10   5  10  10  10  10  10  10
                       0   0   0   0   0   0   0   0   0   0
                       9   9   9   5   9   9   9   9   9   9
 90      1     6      10  10  10  10  10  10
                       7   7   7   7   7   7
                       4   4   4   4   4   4
                       0   0   0   0   0   0
 91      1     5       0   0   0   0   0
                      10  10  10  10   5
                       0   0   0   0   0
                       1   1   1   1   1
 92      1     4       0   0   0   0
                       9   5   5   9
                       4   2   2   4
                       0   0   0   0
 93      1     2       6   3
                       0   0
                       0   0
                       4   2
 94      1     4       0   0   0   0
                       8   8   8   8
                       9   9   9   9
                       0   0   0   0
 95      1     6       6   6   6   3   6   6
                       0   0   0   0   0   0
                       0   0   0   0   0   0
                       0   0   0   0   0   0
 96      1     6       0   0   0   0   0   0
                       0   0   0   0   0   0
                       1   1   1   1   1   1
                       7   7   7   7   7   7
 97      1     7       3   3   3   3   3   3   3
                      10  10  10  10  10  10  10
                       0   0   0   0   0   0   0
                       4   4   4   4   4   4   4
 98      1     2       4   4
                       5   5
                       0   0
                       0   0
 99      1     6       0   0   0   0   0   0
                       8   8   8   8   8   4
                       0   0   0   0   0   0
                       4   4   4   4   4   2
100      1     5       0   0   0   0   0
                       8   8   8   4   8
                       3   3   3   2   3
                       0   0   0   0   0
101      1     6       6   6   3   6   6   6
                       0   0   0   0   0   0
                       0   0   0   0   0   0
                       0   0   0   0   0   0
102      1     2       9   5
                       1   1
                       3   2
                       0   0
103      1     7       5   5   5   5   3   5   5
                       3   3   3   3   2   3   3
                       1   1   1   1   1   1   1
                       0   0   0   0   0   0   0
104      1    10       2   2   2   2   2   2   2   2   2   2
                       0   0   0   0   0   0   0   0   0   0
                       0   0   0   0   0   0   0   0   0   0
                       1   1   1   1   1   1   1   1   1   1
105      1     8       7   7   7   4   7   4   7   7
                       0   0   0   0   0   0   0   0
                       0   0   0   0   0   0   0   0
                       6   6   6   3   6   3   6   6
106      1     4       0   0   0   0
                       0   0   0   0
                       0   0   0   0
                       5   3   5   5
107      1     6       0   0   0   0   0   0
                       0   0   0   0   0   0
                      10  10  10   5  10   5
                      10  10  10   5  10   5
108      1     3       4   4   4
                       1   1   1
                       0   0   0
                       0   0   0
109      1     3      10  10  10
                       6   6   6
                       0   0   0
                       8   8   8
110      1     1       0
                       0
                       0
                       8
111      1     8       0   0   0   0   0   0   0   0
                       2   3   3   3   3   3   3   3
                       0   0   0   0   0   0   0   0
                       4   7   7   7   7   7   7   7
112      1     6       0   0   0   0   0   0
                       0   0   0   0   0   0
                       2   2   1   2   2   2
                       8   8   4   8   8   8
113      1     7       0   0   0   0   0   0   0
                       9   5   9   9   5   9   5
                       0   0   0   0   0   0   0
                       7   4   7   7   4   7   4
114      1     8       0   0   0   0   0   0   0   0
                      10  10  10  10  10  10  10  10
                       6   6   6   6   6   6   6   6
                       0   0   0   0   0   0   0   0
115      1     7       8   4   4   4   8   8   8
                       0   0   0   0   0   0   0
                       0   0   0   0   0   0   0
                       0   0   0   0   0   0   0
116      1     5       0   0   0   0   0
                       0   0   0   0   0
                       7   7   7   7   7
                       0   0   0   0   0
117      1     9       5   5   5   5   5   5   5   5   3
                       5   5   5   5   5   5   5   5   3
                       0   0   0   0   0   0   0   0   0
                       1   1   1   1   1   1   1   1   1
118      1     8       2   2   2   2   2   2   2   2
                       4   4   4   4   4   4   4   4
                       0   0   0   0   0   0   0   0
                       0   0   0   0   0   0   0   0
119      1    10       5   3   5   5   5   5   3   5   5   5
                       0   0   0   0   0   0   0   0   0   0
                       0   0   0   0   0   0   0   0   0   0
                       2   1   2   2   2   2   1   2   2   2
120      1     7       8   8   8   8   8   8   8
                       4   4   4   4   4   4   4
                       0   0   0   0   0   0   0
                       4   4   4   4   4   4   4
121      1     7       0   0   0   0   0   0   0
                       4   2   4   4   4   2   4
                       0   0   0   0   0   0   0
                       1   1   1   1   1   1   1
122      1     0    
************************************************************************
RESOURCEAVAILABILITIES:
  R 1  R 2  R 3  R 4

  19  19  19  19  19  19  19  19  19  19  19  19  19  19  10  10  19  19  19  19  19  19  19  19  19  10  10  19  19  10  10  19  19  10  19  19  19  19  19  19  10  19  19  10  19  19  10  10  19  10  19  19  10  19  10  19  19  19  19  19  19  10  19  10  19  19  19  10  19  19  19  10  10  19  19  10  19  19  19  19  10  19  10  19  19  19  19  19  19  19  19  19  19  19  19  19  19  19  19  10  19  19  19  19  19  19  19  19  19  10  10  10  19  10  19  19  10  19  19  19  19  19  19  19  19  19  19  19  19  19  19  19  19  19  19  10  19  19  19  19  19  19  19  19  10  19  19  19  10  19  19  19  10  19  10  19  10  19  19  19  19  10  10  19  19  19  10  19  19  19  19  19  19  19  19  19  19  19  19  19  19  19  19  19  19  19  19  19  19  10  19  19  10  19  19  19  19  19  10  19  19  10  19  19  10  19  10  19  19  10  19  19  19  19  19  19  19  19  19  10  10  10  10  19  19  19  19  19  10  19  19  10  19  10  19  19  19  10  19  19  10  19  19  19  19  19  19  19  19  19  19  19  19  19  19  19  10  19  19  19  19  19  10  19  19  19  19  10  10  19  19  19  19  19  10  19  10  19  19  10  19  19  19  19  19  10  19  10  19  19  19  19  19  19  19  19  19  19  10  19  10  19  19  19  19  19  19  19  19  10  19  10  10  19  19  10  19  19  19  19  19  19  19  19  19  10  19  19  19  10  19  19  19  19  10  19  10  19  19  19  10  19  10  19  19  19  19  19  19  19  19  19  10  10  19  19  19  19  19  19  19  19  19  19  19  19  19  19  19  19  19  19  19  19  10  19  19  19  19  19  19  10  10  10  19  19  19  19  10  10  10  19  19  19  19  19  10  19  19  19  10  10  19  19  19  19  19  10  19  10  19  19  10  19  10  19  19  10  10  10  10  19  19  10  19  19  19  19  19  19  19  19  19  10  19  10  19  10  10  19  19  19  19  19  19  19  10  10  19  19  19  19  10  19  19  19  19  19  19  19  10  19  19  10  10  19  19  19  19  19  19  10  19  19  19  19  19  19  19  19  19  19  19  19  19  19  19  19  19  19  19  19  19  10  10  10  19  19  10  19  10  19  19  19  19  19  19  19  19  19  19  19  19  19  10  19  10  19  10  19  10  19  19  19  19  19  19  10  19  19  19  19  19  19  19  10  19  19  19  10  10  19  19  19  10  10  19  19  19  10  19  19  19  19  19  19  19  10  19  19  19  19  19  19  19  19  19  10  19  19  19  10  10  10  19  19  19  19  19  19  10  10  19  10  19  19  19  19  10  19  19  19  10  19  10  19  19  10  19  19  10  19  10  19  19  19  19  19  19  19  19  10  19  19  19  19  19  19  19  10  19  19  10  19  19  19  19  10  19  19  19  19  10  19  19  10  19  19  19  19  19  10  19  19  10  19  19  10  19  19  19  19

  20  20  20  20  20  20  20  20  20  20  20  20  20  20  10  10  20  20  20  20  20  20  20  20  20  10  10  20  20  10  10  20  20  10  20  20  20  20  20  20  10  20  20  10  20  20  10  10  20  10  20  20  10  20  10  20  20  20  20  20  20  10  20  10  20  20  20  10  20  20  20  10  10  20  20  10  20  20  20  20  10  20  10  20  20  20  20  20  20  20  20  20  20  20  20  20  20  20  20  10  20  20  20  20  20  20  20  20  20  10  10  10  20  10  20  20  10  20  20  20  20  20  20  20  20  20  20  20  20  20  20  20  20  20  20  10  20  20  20  20  20  20  20  20  10  20  20  20  10  20  20  20  10  20  10  20  10  20  20  20  20  10  10  20  20  20  10  20  20  20  20  20  20  20  20  20  20  20  20  20  20  20  20  20  20  20  20  20  20  10  20  20  10  20  20  20  20  20  10  20  20  10  20  20  10  20  10  20  20  10  20  20  20  20  20  20  20  20  20  10  10  10  10  20  20  20  20  20  10  20  20  10  20  10  20  20  20  10  20  20  10  20  20  20  20  20  20  20  20  20  20  20  20  20  20  20  10  20  20  20  20  20  10  20  20  20  20  10  10  20  20  20  20  20  10  20  10  20  20  10  20  20  20  20  20  10  20  10  20  20  20  20  20  20  20  20  20  20  10  20  10  20  20  20  20  20  20  20  20  10  20  10  10  20  20  10  20  20  20  20  20  20  20  20  20  10  20  20  20  10  20  20  20  20  10  20  10  20  20  20  10  20  10  20  20  20  20  20  20  20  20  20  10  10  20  20  20  20  20  20  20  20  20  20  20  20  20  20  20  20  20  20  20  20  10  20  20  20  20  20  20  10  10  10  20  20  20  20  10  10  10  20  20  20  20  20  10  20  20  20  10  10  20  20  20  20  20  10  20  10  20  20  10  20  10  20  20  10  10  10  10  20  20  10  20  20  20  20  20  20  20  20  20  10  20  10  20  10  10  20  20  20  20  20  20  20  10  10  20  20  20  20  10  20  20  20  20  20  20  20  10  20  20  10  10  20  20  20  20  20  20  10  20  20  20  20  20  20  20  20  20  20  20  20  20  20  20  20  20  20  20  20  20  10  10  10  20  20  10  20  10  20  20  20  20  20  20  20  20  20  20  20  20  20  10  20  10  20  10  20  10  20  20  20  20  20  20  10  20  20  20  20  20  20  20  10  20  20  20  10  10  20  20  20  10  10  20  20  20  10  20  20  20  20  20  20  20  10  20  20  20  20  20  20  20  20  20  10  20  20  20  10  10  10  20  20  20  20  20  20  10  10  20  10  20  20  20  20  10  20  20  20  10  20  10  20  20  10  20  20  10  20  10  20  20  20  20  20  20  20  20  10  20  20  20  20  20  20  20  10  20  20  10  20  20  20  20  10  20  20  20  20  10  20  20  10  20  20  20  20  20  10  20  20  10  20  20  10  20  20  20  20

  20  20  20  20  20  20  20  20  20  20  20  20  20  20  10  10  20  20  20  20  20  20  20  20  20  10  10  20  20  10  10  20  20  10  20  20  20  20  20  20  10  20  20  10  20  20  10  10  20  10  20  20  10  20  10  20  20  20  20  20  20  10  20  10  20  20  20  10  20  20  20  10  10  20  20  10  20  20  20  20  10  20  10  20  20  20  20  20  20  20  20  20  20  20  20  20  20  20  20  10  20  20  20  20  20  20  20  20  20  10  10  10  20  10  20  20  10  20  20  20  20  20  20  20  20  20  20  20  20  20  20  20  20  20  20  10  20  20  20  20  20  20  20  20  10  20  20  20  10  20  20  20  10  20  10  20  10  20  20  20  20  10  10  20  20  20  10  20  20  20  20  20  20  20  20  20  20  20  20  20  20  20  20  20  20  20  20  20  20  10  20  20  10  20  20  20  20  20  10  20  20  10  20  20  10  20  10  20  20  10  20  20  20  20  20  20  20  20  20  10  10  10  10  20  20  20  20  20  10  20  20  10  20  10  20  20  20  10  20  20  10  20  20  20  20  20  20  20  20  20  20  20  20  20  20  20  10  20  20  20  20  20  10  20  20  20  20  10  10  20  20  20  20  20  10  20  10  20  20  10  20  20  20  20  20  10  20  10  20  20  20  20  20  20  20  20  20  20  10  20  10  20  20  20  20  20  20  20  20  10  20  10  10  20  20  10  20  20  20  20  20  20  20  20  20  10  20  20  20  10  20  20  20  20  10  20  10  20  20  20  10  20  10  20  20  20  20  20  20  20  20  20  10  10  20  20  20  20  20  20  20  20  20  20  20  20  20  20  20  20  20  20  20  20  10  20  20  20  20  20  20  10  10  10  20  20  20  20  10  10  10  20  20  20  20  20  10  20  20  20  10  10  20  20  20  20  20  10  20  10  20  20  10  20  10  20  20  10  10  10  10  20  20  10  20  20  20  20  20  20  20  20  20  10  20  10  20  10  10  20  20  20  20  20  20  20  10  10  20  20  20  20  10  20  20  20  20  20  20  20  10  20  20  10  10  20  20  20  20  20  20  10  20  20  20  20  20  20  20  20  20  20  20  20  20  20  20  20  20  20  20  20  20  10  10  10  20  20  10  20  10  20  20  20  20  20  20  20  20  20  20  20  20  20  10  20  10  20  10  20  10  20  20  20  20  20  20  10  20  20  20  20  20  20  20  10  20  20  20  10  10  20  20  20  10  10  20  20  20  10  20  20  20  20  20  20  20  10  20  20  20  20  20  20  20  20  20  10  20  20  20  10  10  10  20  20  20  20  20  20  10  10  20  10  20  20  20  20  10  20  20  20  10  20  10  20  20  10  20  20  10  20  10  20  20  20  20  20  20  20  20  10  20  20  20  20  20  20  20  10  20  20  10  20  20  20  20  10  20  20  20  20  10  20  20  10  20  20  20  20  20  10  20  20  10  20  20  10  20  20  20  20

  21  21  21  21  21  21  21  21  21  21  21  21  21  21  11  11  21  21  21  21  21  21  21  21  21  11  11  21  21  11  11  21  21  11  21  21  21  21  21  21  11  21  21  11  21  21  11  11  21  11  21  21  11  21  11  21  21  21  21  21  21  11  21  11  21  21  21  11  21  21  21  11  11  21  21  11  21  21  21  21  11  21  11  21  21  21  21  21  21  21  21  21  21  21  21  21  21  21  21  11  21  21  21  21  21  21  21  21  21  11  11  11  21  11  21  21  11  21  21  21  21  21  21  21  21  21  21  21  21  21  21  21  21  21  21  11  21  21  21  21  21  21  21  21  11  21  21  21  11  21  21  21  11  21  11  21  11  21  21  21  21  11  11  21  21  21  11  21  21  21  21  21  21  21  21  21  21  21  21  21  21  21  21  21  21  21  21  21  21  11  21  21  11  21  21  21  21  21  11  21  21  11  21  21  11  21  11  21  21  11  21  21  21  21  21  21  21  21  21  11  11  11  11  21  21  21  21  21  11  21  21  11  21  11  21  21  21  11  21  21  11  21  21  21  21  21  21  21  21  21  21  21  21  21  21  21  11  21  21  21  21  21  11  21  21  21  21  11  11  21  21  21  21  21  11  21  11  21  21  11  21  21  21  21  21  11  21  11  21  21  21  21  21  21  21  21  21  21  11  21  11  21  21  21  21  21  21  21  21  11  21  11  11  21  21  11  21  21  21  21  21  21  21  21  21  11  21  21  21  11  21  21  21  21  11  21  11  21  21  21  11  21  11  21  21  21  21  21  21  21  21  21  11  11  21  21  21  21  21  21  21  21  21  21  21  21  21  21  21  21  21  21  21  21  11  21  21  21  21  21  21  11  11  11  21  21  21  21  11  11  11  21  21  21  21  21  11  21  21  21  11  11  21  21  21  21  21  11  21  11  21  21  11  21  11  21  21  11  11  11  11  21  21  11  21  21  21  21  21  21  21  21  21  11  21  11  21  11  11  21  21  21  21  21  21  21  11  11  21  21  21  21  11  21  21  21  21  21  21  21  11  21  21  11  11  21  21  21  21  21  21  11  21  21  21  21  21  21  21  21  21  21  21  21  21  21  21  21  21  21  21  21  21  11  11  11  21  21  11  21  11  21  21  21  21  21  21  21  21  21  21  21  21  21  11  21  11  21  11  21  11  21  21  21  21  21  21  11  21  21  21  21  21  21  21  11  21  21  21  11  11  21  21  21  11  11  21  21  21  11  21  21  21  21  21  21  21  11  21  21  21  21  21  21  21  21  21  11  21  21  21  11  11  11  21  21  21  21  21  21  11  11  21  11  21  21  21  21  11  21  21  21  11  21  11  21  21  11  21  21  11  21  11  21  21  21  21  21  21  21  21  11  21  21  21  21  21  21  21  11  21  21  11  21  21  21  21  11  21  21  21  21  11  21  21  11  21  21  21  21  21  11  21  21  11  21  21  11  21  21  21  21

************************************************************************
